data/CVRPLIB/Vrp-Set-XML100/instances/XML100_3214_10.vrp
NAME : XML100_3214_10
COMMENT : Generated by Queiroga, Sadykov, Uchoa, and Vidal (2021)
TYPE : CVRP
DIMENSION : 101
EDGE_WEIGHT_TYPE : EUC_2D
CAPACITY : 12
NODE_COORD_SECTION
1    0    0   
2    104  664 
3    85   410 
4    32   915 
5    10   902 
6    239  575 
7    130  951 
8    318  476 
9    176  539 
10   196  395 
11   299  523 
12   199  481 
13   59   902 
14   65   914 
15   30   990 
16   28   993 
17   144  563 
18   424  559 
19   447  513 
20   173  237 
21   9    994 
22   12   972 
23   108  856 
24   171  821 
25   153  619 
26   207  454 
27   283  356 
28   158  505 
29   2    530 
30   281  601 
31   36   845 
32   130  846 
33   175  890 
34   42   898 
35   130  393 
36   250  549 
37   300  261 
38   153  384 
39   252  404 
40   326  503 
41   229  577 
42   18   997 
43   253  266 
44   240  473 
45   184  192 
46   353  505 
47   261  550 
48   455  518 
49   486  408 
50   229  385 
51   147  564 
52   148  845 
53   184  488 
54   349  426 
55   193  434 
56   73   485 
57   295  471 
58   85   321 
59   287  534 
60   366  399 
61   307  640 
62   8    907 
63   197  539 
64   155  525 
65   186  520 
66   19   913 
67   79   455 
68   27   636 
69   270  508 
70   242  472 
71   291  521 
72   73   895 
73   22   990 
74   180  981 
75   3    993 
76   243  484 
77   171  413 
78   349  568 
79   168  525 
80   323  579 
81   412  535 
82   223  570 
83   127  891 
84   412  500 
85   11   980 
86   386  568 
87   183  414 
88   268  564 
89   60   950 
90   319  550 
91   367  499 
92   230  452 
93   216  435 
94   198  434 
95   228  563 
96   275  462 
97   21   991 
98   242  511 
99   11   911 
100  13   980 
101  48   711 
DEMAND_SECTION
1    0   
2    1   
3    1   
4    1   
5    1   
6    1   
7    1   
8    1   
9    1   
10   1   
11   1   
12   1   
13   1   
14   1   
15   1   
16   1   
17   1   
18   1   
19   1   
20   1   
21   1   
22   1   
23   1   
24   1   
25   1   
26   1   
27   1   
28   1   
29   1   
30   1   
31   1   
32   1   
33   1   
34   1   
35   1   
36   1   
37   1   
38   1   
39   1   
40   1   
41   1   
42   1   
43   1   
44   1   
45   1   
46   1   
47   1   
48   1   
49   1   
50   1   
51   1   
52   1   
53   1   
54   1   
55   1   
56   1   
57   1   
58   1   
59   1   
60   1   
61   1   
62   1   
63   1   
64   1   
65   1   
66   1   
67   1   
68   1   
69   1   
70   1   
71   1   
72   1   
73   1   
74   1   
75   1   
76   1   
77   1   
78   1   
79   1   
80   1   
81   1   
82   1   
83   1   
84   1   
85   1   
86   1   
87   1   
88   1   
89   1   
90   1   
91   1   
92   1   
93   1   
94   1   
95   1   
96   1   
97   1   
98   1   
99   1   
100  1   
101  1   
DEPOT_SECTION
1
-1
EOF
