data/CVRPLIB/Vrp-Set-XML100/solutions/XML100_3214_10.sol
Route #1: 21 99 84 74 20 41 96 72 15 14 88 13
Route #2: 28 67 30 4 61 98 65 3 33 12 71 100
Route #3: 9 92 91 69 43 75 25 93 54 86 76 37
Route #4: 44 36 42 19
Route #5: 57 2 66 55 27 63 78 8 62 64 52 34
Route #6: 16 50 24 23 51 32 73 6 82 22 31 1
Route #7: 59 48 47 18 83 80 17 85 45 90 53 26
Route #8: 94 81 40 5 29 60 79 77 89 39 7 56
Route #9: 49 38 95 68 70 10 58 87 46 35 97 11
Cost 13596
